% demand
num_movements = 22;
loading_factor = [1850, 850, 950, 1200, 850, 850, 1850, 1150, 1850, 1150, 1850, 850, 1950, 800, 1750, 1600, 1550, 950, 2000, 1100, 1250, 1650];
pickup_time = [0, 0, 0, 0, 0, 0, 2, 2, 2, 4, 4, 4, 4, 5, 5, 5, 6, 6, 6, 6, 6, 8];
delivery_time = [1, 5, 1, 4, 1, 1, 4, 4, 4, 5, 5, 6, 6, 6, 6, 6, 8, 8, 8, 8, 8, 9];

% transporter definition
total_capacity = 7000;
num_decks = 3;
capacity = [3000, 1000, 3000];

% ways out of decks
num_ways_out = 1;
paths_out = array3d(decks, ways_out, decks, [
% ways out of deck d1
2, 3, 0, 

% ways out of deck d2
3, 0, 0, 

% ways out of deck d3
0, 0, 0,	

]);

